
  32    4
  10   10   10   10

   0   0   0   0   0   3 2 3 12 
   9   0   1   4   1   2 15 4 
   4   0   4   3   4   2 15 4 
   4   0   4   5   8   2 8 5 
   8   1   0   5   3   2 11 6 
   9   6   5   3   0   2 20 7 
   7   0   5   3   5   2 19 9 
   4   0   3   3   3   2 11 10 
   5   6   4   3   0   1 10 
   3   3   5   3   0   3 26 18 13 
   9   4   5   0   3   3 26 18 13 
   2   4   3   2   0   4 23 20 18 16 
   7   0   3  10   4   1 14 
   4   0   6   3   5   2 23 16 
   6   4   6   5   0   2 20 17 
   6   4   3   0   3   1 17 
   6   5   2   0   5   2 31 21 
   5   5   0   3   3   2 31 21 
  10   0   1   5   4   2 31 21 
   2   2   0   5   4   1 21 
   5   1   3   5   0   2 25 22 
   1   4   3   4   0   4 30 29 28 24 
   2   0   4   5   8   1 24 
   9   5   5   0   3   1 27 
   4   6   0   3   2   1 28 
   3   5   0   5   4   1 31 
  10   5   0   2   1   1 32
   1   5   7   1   0   1 32
   4   0   6   5   4   1 32
   7   2   3   5   0   1 32
   1   3   5   0   7   1 32
   0   0   0   0   0   0 
